c Sudoku solution
p cnf 729 0
131 0
163 0
241 0
278 0
283 0
292 0
328 0
421 0
465 0
472 0
527 0
535 0
549 0
566 0
588 0
626 0
668 0
717 0
743 0
764 0
799 0
885 0
898 0
925 0
722 0
982 0
755 0
738 0
418 0
823 0
215 0
959 0
948 0
158 0
973 0
237 0
256 0
224 0
129 0
269 0
846 0
386 0
379 0
391 0
116 0
142 0
367 0
345 0
354 0
936 0
862 0
961 0
857 0
997 0
874 0
811 0
914 0
839 0
619 0
489 0
496 0
453 0
434 0
447 0
644 0
571 0
687 0
594 0
693 0
675 0
552 0
651 0
513 0
632 0
312 0
333 0
776 0
781 0
177 0
195 0
184 0
